c sat-color-log2 queen5x5.gb 5
c file created by SAT-TO-DIMACS Wed Jul  8 08:17:37 2015
c 4.4.2 -> 75
c 4.3.2 -> 74
c 4.2.2 -> 73
c 4.1.2 -> 72
c 4.0.2 -> 71
c 3.4.2 -> 70
c 3.3.2 -> 69
c 3.2.2 -> 68
c 3.1.2 -> 67
c 3.0.2 -> 66
c 2.4.2 -> 65
c 2.3.2 -> 64
c 2.2.2 -> 63
c 2.1.2 -> 62
c 2.0.2 -> 61
c 1.4.2 -> 60
c 1.3.2 -> 59
c 1.2.2 -> 58
c 1.1.2 -> 57
c 1.0.2 -> 56
c 0.4.2 -> 55
c 0.3.2 -> 54
c 0.2.2 -> 53
c 0.1.2 -> 52
c 0.0.2 -> 51
c 4.4.1 -> 50
c 4.4.3 -> 49
c 4.3.1 -> 48
c 4.3.3 -> 47
c 4.2.1 -> 46
c 4.2.3 -> 45
c 4.1.1 -> 44
c 4.1.3 -> 43
c 4.0.1 -> 42
c 4.0.3 -> 41
c 3.4.1 -> 40
c 3.4.3 -> 39
c 3.3.1 -> 38
c 3.3.3 -> 37
c 3.2.1 -> 36
c 3.2.3 -> 35
c 3.1.1 -> 34
c 3.1.3 -> 33
c 3.0.1 -> 32
c 3.0.3 -> 31
c 2.4.1 -> 30
c 2.4.3 -> 29
c 2.3.1 -> 28
c 2.3.3 -> 27
c 2.2.1 -> 26
c 2.2.3 -> 25
c 2.1.1 -> 24
c 2.1.3 -> 23
c 2.0.1 -> 22
c 2.0.3 -> 21
c 1.4.1 -> 20
c 1.4.3 -> 19
c 1.3.1 -> 18
c 1.3.3 -> 17
c 1.2.1 -> 16
c 1.2.3 -> 15
c 1.1.1 -> 14
c 1.1.3 -> 13
c 1.0.1 -> 12
c 1.0.3 -> 11
c 0.4.1 -> 10
c 0.4.3 -> 9
c 0.3.1 -> 8
c 0.3.3 -> 7
c 0.2.1 -> 6
c 0.2.3 -> 5
c 0.1.1 -> 4
c 0.1.3 -> 3
c 0.0.1 -> 2
c 0.0.3 -> 1
p cnf 75 850
 -50 -2 75 51 49 1 0
 50 2 -75 -51 -49 -1 0
 50 2 -75 -51 49 1 0
 50 2 75 51 -49 -1 0
 50 2 75 51 49 1 0
 -50 -10 75 55 49 9 0
 50 10 -75 -55 -49 -9 0
 50 10 -75 -55 49 9 0
 50 10 75 55 -49 -9 0
 50 10 75 55 49 9 0
 -50 -14 75 57 49 13 0
 50 14 -75 -57 -49 -13 0
 50 14 -75 -57 49 13 0
 50 14 75 57 -49 -13 0
 50 14 75 57 49 13 0
 -50 -20 75 60 49 19 0
 50 20 -75 -60 -49 -19 0
 50 20 -75 -60 49 19 0
 50 20 75 60 -49 -19 0
 50 20 75 60 49 19 0
 -50 -26 75 63 49 25 0
 50 26 -75 -63 -49 -25 0
 50 26 -75 -63 49 25 0
 50 26 75 63 -49 -25 0
 50 26 75 63 49 25 0
 -50 -30 75 65 49 29 0
 50 30 -75 -65 -49 -29 0
 50 30 -75 -65 49 29 0
 50 30 75 65 -49 -29 0
 50 30 75 65 49 29 0
 -50 -38 75 69 49 37 0
 50 38 -75 -69 -49 -37 0
 50 38 -75 -69 49 37 0
 50 38 75 69 -49 -37 0
 50 38 75 69 49 37 0
 -50 -40 75 70 49 39 0
 50 40 -75 -70 -49 -39 0
 50 40 -75 -70 49 39 0
 50 40 75 70 -49 -39 0
 50 40 75 70 49 39 0
 -50 -42 75 71 49 41 0
 50 42 -75 -71 -49 -41 0
 50 42 -75 -71 49 41 0
 50 42 75 71 -49 -41 0
 50 42 75 71 49 41 0
 -50 -44 75 72 49 43 0
 50 44 -75 -72 -49 -43 0
 50 44 -75 -72 49 43 0
 50 44 75 72 -49 -43 0
 50 44 75 72 49 43 0
 -50 -46 75 73 49 45 0
 50 46 -75 -73 -49 -45 0
 50 46 -75 -73 49 45 0
 50 46 75 73 -49 -45 0
 50 46 75 73 49 45 0
 -50 -48 75 74 49 47 0
 50 48 -75 -74 -49 -47 0
 50 48 -75 -74 49 47 0
 50 48 75 74 -49 -47 0
 50 48 75 74 49 47 0
 -48 -8 74 54 47 7 0
 48 8 -74 -54 -47 -7 0
 48 8 -74 -54 47 7 0
 48 8 74 54 -47 -7 0
 48 8 74 54 47 7 0
 -48 -12 74 56 47 11 0
 48 12 -74 -56 -47 -11 0
 48 12 -74 -56 47 11 0
 48 12 74 56 -47 -11 0
 48 12 74 56 47 11 0
 -48 -18 74 59 47 17 0
 48 18 -74 -59 -47 -17 0
 48 18 -74 -59 47 17 0
 48 18 74 59 -47 -17 0
 48 18 74 59 47 17 0
 -48 -24 74 62 47 23 0
 48 24 -74 -62 -47 -23 0
 48 24 -74 -62 47 23 0
 48 24 74 62 -47 -23 0
 48 24 74 62 47 23 0
 -48 -28 74 64 47 27 0
 48 28 -74 -64 -47 -27 0
 48 28 -74 -64 47 27 0
 48 28 74 64 -47 -27 0
 48 28 74 64 47 27 0
 -48 -36 74 68 47 35 0
 48 36 -74 -68 -47 -35 0
 48 36 -74 -68 47 35 0
 48 36 74 68 -47 -35 0
 48 36 74 68 47 35 0
 -48 -38 74 69 47 37 0
 48 38 -74 -69 -47 -37 0
 48 38 -74 -69 47 37 0
 48 38 74 69 -47 -37 0
 48 38 74 69 47 37 0
 -48 -40 74 70 47 39 0
 48 40 -74 -70 -47 -39 0
 48 40 -74 -70 47 39 0
 48 40 74 70 -47 -39 0
 48 40 74 70 47 39 0
 -48 -42 74 71 47 41 0
 48 42 -74 -71 -47 -41 0
 48 42 -74 -71 47 41 0
 48 42 74 71 -47 -41 0
 48 42 74 71 47 41 0
 -48 -44 74 72 47 43 0
 48 44 -74 -72 -47 -43 0
 48 44 -74 -72 47 43 0
 48 44 74 72 -47 -43 0
 48 44 74 72 47 43 0
 -48 -46 74 73 47 45 0
 48 46 -74 -73 -47 -45 0
 48 46 -74 -73 47 45 0
 48 46 74 73 -47 -45 0
 48 46 74 73 47 45 0
 -46 -6 73 53 45 5 0
 46 6 -73 -53 -45 -5 0
 46 6 -73 -53 45 5 0
 46 6 73 53 -45 -5 0
 46 6 73 53 45 5 0
 -46 -16 73 58 45 15 0
 46 16 -73 -58 -45 -15 0
 46 16 -73 -58 45 15 0
 46 16 73 58 -45 -15 0
 46 16 73 58 45 15 0
 -46 -22 73 61 45 21 0
 46 22 -73 -61 -45 -21 0
 46 22 -73 -61 45 21 0
 46 22 73 61 -45 -21 0
 46 22 73 61 45 21 0
 -46 -26 73 63 45 25 0
 46 26 -73 -63 -45 -25 0
 46 26 -73 -63 45 25 0
 46 26 73 63 -45 -25 0
 46 26 73 63 45 25 0
 -46 -30 73 65 45 29 0
 46 30 -73 -65 -45 -29 0
 46 30 -73 -65 45 29 0
 46 30 73 65 -45 -29 0
 46 30 73 65 45 29 0
 -46 -34 73 67 45 33 0
 46 34 -73 -67 -45 -33 0
 46 34 -73 -67 45 33 0
 46 34 73 67 -45 -33 0
 46 34 73 67 45 33 0
 -46 -36 73 68 45 35 0
 46 36 -73 -68 -45 -35 0
 46 36 -73 -68 45 35 0
 46 36 73 68 -45 -35 0
 46 36 73 68 45 35 0
 -46 -38 73 69 45 37 0
 46 38 -73 -69 -45 -37 0
 46 38 -73 -69 45 37 0
 46 38 73 69 -45 -37 0
 46 38 73 69 45 37 0
 -46 -42 73 71 45 41 0
 46 42 -73 -71 -45 -41 0
 46 42 -73 -71 45 41 0
 46 42 73 71 -45 -41 0
 46 42 73 71 45 41 0
 -46 -44 73 72 45 43 0
 46 44 -73 -72 -45 -43 0
 46 44 -73 -72 45 43 0
 46 44 73 72 -45 -43 0
 46 44 73 72 45 43 0
 -44 -4 72 52 43 3 0
 44 4 -72 -52 -43 -3 0
 44 4 -72 -52 43 3 0
 44 4 72 52 -43 -3 0
 44 4 72 52 43 3 0
 -44 -14 72 57 43 13 0
 44 14 -72 -57 -43 -13 0
 44 14 -72 -57 43 13 0
 44 14 72 57 -43 -13 0
 44 14 72 57 43 13 0
 -44 -20 72 60 43 19 0
 44 20 -72 -60 -43 -19 0
 44 20 -72 -60 43 19 0
 44 20 72 60 -43 -19 0
 44 20 72 60 43 19 0
 -44 -24 72 62 43 23 0
 44 24 -72 -62 -43 -23 0
 44 24 -72 -62 43 23 0
 44 24 72 62 -43 -23 0
 44 24 72 62 43 23 0
 -44 -28 72 64 43 27 0
 44 28 -72 -64 -43 -27 0
 44 28 -72 -64 43 27 0
 44 28 72 64 -43 -27 0
 44 28 72 64 43 27 0
 -44 -32 72 66 43 31 0
 44 32 -72 -66 -43 -31 0
 44 32 -72 -66 43 31 0
 44 32 72 66 -43 -31 0
 44 32 72 66 43 31 0
 -44 -34 72 67 43 33 0
 44 34 -72 -67 -43 -33 0
 44 34 -72 -67 43 33 0
 44 34 72 67 -43 -33 0
 44 34 72 67 43 33 0
 -44 -36 72 68 43 35 0
 44 36 -72 -68 -43 -35 0
 44 36 -72 -68 43 35 0
 44 36 72 68 -43 -35 0
 44 36 72 68 43 35 0
 -44 -42 72 71 43 41 0
 44 42 -72 -71 -43 -41 0
 44 42 -72 -71 43 41 0
 44 42 72 71 -43 -41 0
 44 42 72 71 43 41 0
 -42 -2 71 51 41 1 0
 42 2 -71 -51 -41 -1 0
 42 2 -71 -51 41 1 0
 42 2 71 51 -41 -1 0
 42 2 71 51 41 1 0
 -42 -10 71 55 41 9 0
 42 10 -71 -55 -41 -9 0
 42 10 -71 -55 41 9 0
 42 10 71 55 -41 -9 0
 42 10 71 55 41 9 0
 -42 -12 71 56 41 11 0
 42 12 -71 -56 -41 -11 0
 42 12 -71 -56 41 11 0
 42 12 71 56 -41 -11 0
 42 12 71 56 41 11 0
 -42 -18 71 59 41 17 0
 42 18 -71 -59 -41 -17 0
 42 18 -71 -59 41 17 0
 42 18 71 59 -41 -17 0
 42 18 71 59 41 17 0
 -42 -22 71 61 41 21 0
 42 22 -71 -61 -41 -21 0
 42 22 -71 -61 41 21 0
 42 22 71 61 -41 -21 0
 42 22 71 61 41 21 0
 -42 -26 71 63 41 25 0
 42 26 -71 -63 -41 -25 0
 42 26 -71 -63 41 25 0
 42 26 71 63 -41 -25 0
 42 26 71 63 41 25 0
 -42 -32 71 66 41 31 0
 42 32 -71 -66 -41 -31 0
 42 32 -71 -66 41 31 0
 42 32 71 66 -41 -31 0
 42 32 71 66 41 31 0
 -42 -34 71 67 41 33 0
 42 34 -71 -67 -41 -33 0
 42 34 -71 -67 41 33 0
 42 34 71 67 -41 -33 0
 42 34 71 67 41 33 0
 -40 -4 70 52 39 3 0
 40 4 -70 -52 -39 -3 0
 40 4 -70 -52 39 3 0
 40 4 70 52 -39 -3 0
 40 4 70 52 39 3 0
 -40 -10 70 55 39 9 0
 40 10 -70 -55 -39 -9 0
 40 10 -70 -55 39 9 0
 40 10 70 55 -39 -9 0
 40 10 70 55 39 9 0
 -40 -16 70 58 39 15 0
 40 16 -70 -58 -39 -15 0
 40 16 -70 -58 39 15 0
 40 16 70 58 -39 -15 0
 40 16 70 58 39 15 0
 -40 -20 70 60 39 19 0
 40 20 -70 -60 -39 -19 0
 40 20 -70 -60 39 19 0
 40 20 70 60 -39 -19 0
 40 20 70 60 39 19 0
 -40 -28 70 64 39 27 0
 40 28 -70 -64 -39 -27 0
 40 28 -70 -64 39 27 0
 40 28 70 64 -39 -27 0
 40 28 70 64 39 27 0
 -40 -30 70 65 39 29 0
 40 30 -70 -65 -39 -29 0
 40 30 -70 -65 39 29 0
 40 30 70 65 -39 -29 0
 40 30 70 65 39 29 0
 -40 -32 70 66 39 31 0
 40 32 -70 -66 -39 -31 0
 40 32 -70 -66 39 31 0
 40 32 70 66 -39 -31 0
 40 32 70 66 39 31 0
 -40 -34 70 67 39 33 0
 40 34 -70 -67 -39 -33 0
 40 34 -70 -67 39 33 0
 40 34 70 67 -39 -33 0
 40 34 70 67 39 33 0
 -40 -36 70 68 39 35 0
 40 36 -70 -68 -39 -35 0
 40 36 -70 -68 39 35 0
 40 36 70 68 -39 -35 0
 40 36 70 68 39 35 0
 -40 -38 70 69 39 37 0
 40 38 -70 -69 -39 -37 0
 40 38 -70 -69 39 37 0
 40 38 70 69 -39 -37 0
 40 38 70 69 39 37 0
 -38 -2 69 51 37 1 0
 38 2 -69 -51 -37 -1 0
 38 2 -69 -51 37 1 0
 38 2 69 51 -37 -1 0
 38 2 69 51 37 1 0
 -38 -8 69 54 37 7 0
 38 8 -69 -54 -37 -7 0
 38 8 -69 -54 37 7 0
 38 8 69 54 -37 -7 0
 38 8 69 54 37 7 0
 -38 -14 69 57 37 13 0
 38 14 -69 -57 -37 -13 0
 38 14 -69 -57 37 13 0
 38 14 69 57 -37 -13 0
 38 14 69 57 37 13 0
 -38 -18 69 59 37 17 0
 38 18 -69 -59 -37 -17 0
 38 18 -69 -59 37 17 0
 38 18 69 59 -37 -17 0
 38 18 69 59 37 17 0
 -38 -26 69 63 37 25 0
 38 26 -69 -63 -37 -25 0
 38 26 -69 -63 37 25 0
 38 26 69 63 -37 -25 0
 38 26 69 63 37 25 0
 -38 -28 69 64 37 27 0
 38 28 -69 -64 -37 -27 0
 38 28 -69 -64 37 27 0
 38 28 69 64 -37 -27 0
 38 28 69 64 37 27 0
 -38 -30 69 65 37 29 0
 38 30 -69 -65 -37 -29 0
 38 30 -69 -65 37 29 0
 38 30 69 65 -37 -29 0
 38 30 69 65 37 29 0
 -38 -32 69 66 37 31 0
 38 32 -69 -66 -37 -31 0
 38 32 -69 -66 37 31 0
 38 32 69 66 -37 -31 0
 38 32 69 66 37 31 0
 -38 -34 69 67 37 33 0
 38 34 -69 -67 -37 -33 0
 38 34 -69 -67 37 33 0
 38 34 69 67 -37 -33 0
 38 34 69 67 37 33 0
 -38 -36 69 68 37 35 0
 38 36 -69 -68 -37 -35 0
 38 36 -69 -68 37 35 0
 38 36 69 68 -37 -35 0
 38 36 69 68 37 35 0
 -36 -6 68 53 35 5 0
 36 6 -68 -53 -35 -5 0
 36 6 -68 -53 35 5 0
 36 6 68 53 -35 -5 0
 36 6 68 53 35 5 0
 -36 -12 68 56 35 11 0
 36 12 -68 -56 -35 -11 0
 36 12 -68 -56 35 11 0
 36 12 68 56 -35 -11 0
 36 12 68 56 35 11 0
 -36 -16 68 58 35 15 0
 36 16 -68 -58 -35 -15 0
 36 16 -68 -58 35 15 0
 36 16 68 58 -35 -15 0
 36 16 68 58 35 15 0
 -36 -20 68 60 35 19 0
 36 20 -68 -60 -35 -19 0
 36 20 -68 -60 35 19 0
 36 20 68 60 -35 -19 0
 36 20 68 60 35 19 0
 -36 -24 68 62 35 23 0
 36 24 -68 -62 -35 -23 0
 36 24 -68 -62 35 23 0
 36 24 68 62 -35 -23 0
 36 24 68 62 35 23 0
 -36 -26 68 63 35 25 0
 36 26 -68 -63 -35 -25 0
 36 26 -68 -63 35 25 0
 36 26 68 63 -35 -25 0
 36 26 68 63 35 25 0
 -36 -28 68 64 35 27 0
 36 28 -68 -64 -35 -27 0
 36 28 -68 -64 35 27 0
 36 28 68 64 -35 -27 0
 36 28 68 64 35 27 0
 -36 -32 68 66 35 31 0
 36 32 -68 -66 -35 -31 0
 36 32 -68 -66 35 31 0
 36 32 68 66 -35 -31 0
 36 32 68 66 35 31 0
 -36 -34 68 67 35 33 0
 36 34 -68 -67 -35 -33 0
 36 34 -68 -67 35 33 0
 36 34 68 67 -35 -33 0
 36 34 68 67 35 33 0
 -34 -4 67 52 33 3 0
 34 4 -67 -52 -33 -3 0
 34 4 -67 -52 33 3 0
 34 4 67 52 -33 -3 0
 34 4 67 52 33 3 0
 -34 -10 67 55 33 9 0
 34 10 -67 -55 -33 -9 0
 34 10 -67 -55 33 9 0
 34 10 67 55 -33 -9 0
 34 10 67 55 33 9 0
 -34 -14 67 57 33 13 0
 34 14 -67 -57 -33 -13 0
 34 14 -67 -57 33 13 0
 34 14 67 57 -33 -13 0
 34 14 67 57 33 13 0
 -34 -18 67 59 33 17 0
 34 18 -67 -59 -33 -17 0
 34 18 -67 -59 33 17 0
 34 18 67 59 -33 -17 0
 34 18 67 59 33 17 0
 -34 -22 67 61 33 21 0
 34 22 -67 -61 -33 -21 0
 34 22 -67 -61 33 21 0
 34 22 67 61 -33 -21 0
 34 22 67 61 33 21 0
 -34 -24 67 62 33 23 0
 34 24 -67 -62 -33 -23 0
 34 24 -67 -62 33 23 0
 34 24 67 62 -33 -23 0
 34 24 67 62 33 23 0
 -34 -26 67 63 33 25 0
 34 26 -67 -63 -33 -25 0
 34 26 -67 -63 33 25 0
 34 26 67 63 -33 -25 0
 34 26 67 63 33 25 0
 -34 -32 67 66 33 31 0
 34 32 -67 -66 -33 -31 0
 34 32 -67 -66 33 31 0
 34 32 67 66 -33 -31 0
 34 32 67 66 33 31 0
 -32 -2 66 51 31 1 0
 32 2 -66 -51 -31 -1 0
 32 2 -66 -51 31 1 0
 32 2 66 51 -31 -1 0
 32 2 66 51 31 1 0
 -32 -8 66 54 31 7 0
 32 8 -66 -54 -31 -7 0
 32 8 -66 -54 31 7 0
 32 8 66 54 -31 -7 0
 32 8 66 54 31 7 0
 -32 -12 66 56 31 11 0
 32 12 -66 -56 -31 -11 0
 32 12 -66 -56 31 11 0
 32 12 66 56 -31 -11 0
 32 12 66 56 31 11 0
 -32 -16 66 58 31 15 0
 32 16 -66 -58 -31 -15 0
 32 16 -66 -58 31 15 0
 32 16 66 58 -31 -15 0
 32 16 66 58 31 15 0
 -32 -22 66 61 31 21 0
 32 22 -66 -61 -31 -21 0
 32 22 -66 -61 31 21 0
 32 22 66 61 -31 -21 0
 32 22 66 61 31 21 0
 -32 -24 66 62 31 23 0
 32 24 -66 -62 -31 -23 0
 32 24 -66 -62 31 23 0
 32 24 66 62 -31 -23 0
 32 24 66 62 31 23 0
 -30 -6 65 53 29 5 0
 30 6 -65 -53 -29 -5 0
 30 6 -65 -53 29 5 0
 30 6 65 53 -29 -5 0
 30 6 65 53 29 5 0
 -30 -10 65 55 29 9 0
 30 10 -65 -55 -29 -9 0
 30 10 -65 -55 29 9 0
 30 10 65 55 -29 -9 0
 30 10 65 55 29 9 0
 -30 -18 65 59 29 17 0
 30 18 -65 -59 -29 -17 0
 30 18 -65 -59 29 17 0
 30 18 65 59 -29 -17 0
 30 18 65 59 29 17 0
 -30 -20 65 60 29 19 0
 30 20 -65 -60 -29 -19 0
 30 20 -65 -60 29 19 0
 30 20 65 60 -29 -19 0
 30 20 65 60 29 19 0
 -30 -22 65 61 29 21 0
 30 22 -65 -61 -29 -21 0
 30 22 -65 -61 29 21 0
 30 22 65 61 -29 -21 0
 30 22 65 61 29 21 0
 -30 -24 65 62 29 23 0
 30 24 -65 -62 -29 -23 0
 30 24 -65 -62 29 23 0
 30 24 65 62 -29 -23 0
 30 24 65 62 29 23 0
 -30 -26 65 63 29 25 0
 30 26 -65 -63 -29 -25 0
 30 26 -65 -63 29 25 0
 30 26 65 63 -29 -25 0
 30 26 65 63 29 25 0
 -30 -28 65 64 29 27 0
 30 28 -65 -64 -29 -27 0
 30 28 -65 -64 29 27 0
 30 28 65 64 -29 -27 0
 30 28 65 64 29 27 0
 -28 -4 64 52 27 3 0
 28 4 -64 -52 -27 -3 0
 28 4 -64 -52 27 3 0
 28 4 64 52 -27 -3 0
 28 4 64 52 27 3 0
 -28 -8 64 54 27 7 0
 28 8 -64 -54 -27 -7 0
 28 8 -64 -54 27 7 0
 28 8 64 54 -27 -7 0
 28 8 64 54 27 7 0
 -28 -16 64 58 27 15 0
 28 16 -64 -58 -27 -15 0
 28 16 -64 -58 27 15 0
 28 16 64 58 -27 -15 0
 28 16 64 58 27 15 0
 -28 -18 64 59 27 17 0
 28 18 -64 -59 -27 -17 0
 28 18 -64 -59 27 17 0
 28 18 64 59 -27 -17 0
 28 18 64 59 27 17 0
 -28 -20 64 60 27 19 0
 28 20 -64 -60 -27 -19 0
 28 20 -64 -60 27 19 0
 28 20 64 60 -27 -19 0
 28 20 64 60 27 19 0
 -28 -22 64 61 27 21 0
 28 22 -64 -61 -27 -21 0
 28 22 -64 -61 27 21 0
 28 22 64 61 -27 -21 0
 28 22 64 61 27 21 0
 -28 -24 64 62 27 23 0
 28 24 -64 -62 -27 -23 0
 28 24 -64 -62 27 23 0
 28 24 64 62 -27 -23 0
 28 24 64 62 27 23 0
 -28 -26 64 63 27 25 0
 28 26 -64 -63 -27 -25 0
 28 26 -64 -63 27 25 0
 28 26 64 63 -27 -25 0
 28 26 64 63 27 25 0
 -26 -2 63 51 25 1 0
 26 2 -63 -51 -25 -1 0
 26 2 -63 -51 25 1 0
 26 2 63 51 -25 -1 0
 26 2 63 51 25 1 0
 -26 -6 63 53 25 5 0
 26 6 -63 -53 -25 -5 0
 26 6 -63 -53 25 5 0
 26 6 63 53 -25 -5 0
 26 6 63 53 25 5 0
 -26 -10 63 55 25 9 0
 26 10 -63 -55 -25 -9 0
 26 10 -63 -55 25 9 0
 26 10 63 55 -25 -9 0
 26 10 63 55 25 9 0
 -26 -14 63 57 25 13 0
 26 14 -63 -57 -25 -13 0
 26 14 -63 -57 25 13 0
 26 14 63 57 -25 -13 0
 26 14 63 57 25 13 0
 -26 -16 63 58 25 15 0
 26 16 -63 -58 -25 -15 0
 26 16 -63 -58 25 15 0
 26 16 63 58 -25 -15 0
 26 16 63 58 25 15 0
 -26 -18 63 59 25 17 0
 26 18 -63 -59 -25 -17 0
 26 18 -63 -59 25 17 0
 26 18 63 59 -25 -17 0
 26 18 63 59 25 17 0
 -26 -22 63 61 25 21 0
 26 22 -63 -61 -25 -21 0
 26 22 -63 -61 25 21 0
 26 22 63 61 -25 -21 0
 26 22 63 61 25 21 0
 -26 -24 63 62 25 23 0
 26 24 -63 -62 -25 -23 0
 26 24 -63 -62 25 23 0
 26 24 63 62 -25 -23 0
 26 24 63 62 25 23 0
 -24 -4 62 52 23 3 0
 24 4 -62 -52 -23 -3 0
 24 4 -62 -52 23 3 0
 24 4 62 52 -23 -3 0
 24 4 62 52 23 3 0
 -24 -8 62 54 23 7 0
 24 8 -62 -54 -23 -7 0
 24 8 -62 -54 23 7 0
 24 8 62 54 -23 -7 0
 24 8 62 54 23 7 0
 -24 -12 62 56 23 11 0
 24 12 -62 -56 -23 -11 0
 24 12 -62 -56 23 11 0
 24 12 62 56 -23 -11 0
 24 12 62 56 23 11 0
 -24 -14 62 57 23 13 0
 24 14 -62 -57 -23 -13 0
 24 14 -62 -57 23 13 0
 24 14 62 57 -23 -13 0
 24 14 62 57 23 13 0
 -24 -16 62 58 23 15 0
 24 16 -62 -58 -23 -15 0
 24 16 -62 -58 23 15 0
 24 16 62 58 -23 -15 0
 24 16 62 58 23 15 0
 -24 -22 62 61 23 21 0
 24 22 -62 -61 -23 -21 0
 24 22 -62 -61 23 21 0
 24 22 62 61 -23 -21 0
 24 22 62 61 23 21 0
 -22 -2 61 51 21 1 0
 22 2 -61 -51 -21 -1 0
 22 2 -61 -51 21 1 0
 22 2 61 51 -21 -1 0
 22 2 61 51 21 1 0
 -22 -6 61 53 21 5 0
 22 6 -61 -53 -21 -5 0
 22 6 -61 -53 21 5 0
 22 6 61 53 -21 -5 0
 22 6 61 53 21 5 0
 -22 -12 61 56 21 11 0
 22 12 -61 -56 -21 -11 0
 22 12 -61 -56 21 11 0
 22 12 61 56 -21 -11 0
 22 12 61 56 21 11 0
 -22 -14 61 57 21 13 0
 22 14 -61 -57 -21 -13 0
 22 14 -61 -57 21 13 0
 22 14 61 57 -21 -13 0
 22 14 61 57 21 13 0
 -20 -8 60 54 19 7 0
 20 8 -60 -54 -19 -7 0
 20 8 -60 -54 19 7 0
 20 8 60 54 -19 -7 0
 20 8 60 54 19 7 0
 -20 -10 60 55 19 9 0
 20 10 -60 -55 -19 -9 0
 20 10 -60 -55 19 9 0
 20 10 60 55 -19 -9 0
 20 10 60 55 19 9 0
 -20 -12 60 56 19 11 0
 20 12 -60 -56 -19 -11 0
 20 12 -60 -56 19 11 0
 20 12 60 56 -19 -11 0
 20 12 60 56 19 11 0
 -20 -14 60 57 19 13 0
 20 14 -60 -57 -19 -13 0
 20 14 -60 -57 19 13 0
 20 14 60 57 -19 -13 0
 20 14 60 57 19 13 0
 -20 -16 60 58 19 15 0
 20 16 -60 -58 -19 -15 0
 20 16 -60 -58 19 15 0
 20 16 60 58 -19 -15 0
 20 16 60 58 19 15 0
 -20 -18 60 59 19 17 0
 20 18 -60 -59 -19 -17 0
 20 18 -60 -59 19 17 0
 20 18 60 59 -19 -17 0
 20 18 60 59 19 17 0
 -18 -6 59 53 17 5 0
 18 6 -59 -53 -17 -5 0
 18 6 -59 -53 17 5 0
 18 6 59 53 -17 -5 0
 18 6 59 53 17 5 0
 -18 -8 59 54 17 7 0
 18 8 -59 -54 -17 -7 0
 18 8 -59 -54 17 7 0
 18 8 59 54 -17 -7 0
 18 8 59 54 17 7 0
 -18 -10 59 55 17 9 0
 18 10 -59 -55 -17 -9 0
 18 10 -59 -55 17 9 0
 18 10 59 55 -17 -9 0
 18 10 59 55 17 9 0
 -18 -12 59 56 17 11 0
 18 12 -59 -56 -17 -11 0
 18 12 -59 -56 17 11 0
 18 12 59 56 -17 -11 0
 18 12 59 56 17 11 0
 -18 -14 59 57 17 13 0
 18 14 -59 -57 -17 -13 0
 18 14 -59 -57 17 13 0
 18 14 59 57 -17 -13 0
 18 14 59 57 17 13 0
 -18 -16 59 58 17 15 0
 18 16 -59 -58 -17 -15 0
 18 16 -59 -58 17 15 0
 18 16 59 58 -17 -15 0
 18 16 59 58 17 15 0
 -16 -4 58 52 15 3 0
 16 4 -58 -52 -15 -3 0
 16 4 -58 -52 15 3 0
 16 4 58 52 -15 -3 0
 16 4 58 52 15 3 0
 -16 -6 58 53 15 5 0
 16 6 -58 -53 -15 -5 0
 16 6 -58 -53 15 5 0
 16 6 58 53 -15 -5 0
 16 6 58 53 15 5 0
 -16 -8 58 54 15 7 0
 16 8 -58 -54 -15 -7 0
 16 8 -58 -54 15 7 0
 16 8 58 54 -15 -7 0
 16 8 58 54 15 7 0
 -16 -12 58 56 15 11 0
 16 12 -58 -56 -15 -11 0
 16 12 -58 -56 15 11 0
 16 12 58 56 -15 -11 0
 16 12 58 56 15 11 0
 -16 -14 58 57 15 13 0
 16 14 -58 -57 -15 -13 0
 16 14 -58 -57 15 13 0
 16 14 58 57 -15 -13 0
 16 14 58 57 15 13 0
 -14 -2 57 51 13 1 0
 14 2 -57 -51 -13 -1 0
 14 2 -57 -51 13 1 0
 14 2 57 51 -13 -1 0
 14 2 57 51 13 1 0
 -14 -4 57 52 13 3 0
 14 4 -57 -52 -13 -3 0
 14 4 -57 -52 13 3 0
 14 4 57 52 -13 -3 0
 14 4 57 52 13 3 0
 -14 -6 57 53 13 5 0
 14 6 -57 -53 -13 -5 0
 14 6 -57 -53 13 5 0
 14 6 57 53 -13 -5 0
 14 6 57 53 13 5 0
 -14 -12 57 56 13 11 0
 14 12 -57 -56 -13 -11 0
 14 12 -57 -56 13 11 0
 14 12 57 56 -13 -11 0
 14 12 57 56 13 11 0
 -12 -2 56 51 11 1 0
 12 2 -56 -51 -11 -1 0
 12 2 -56 -51 11 1 0
 12 2 56 51 -11 -1 0
 12 2 56 51 11 1 0
 -12 -4 56 52 11 3 0
 12 4 -56 -52 -11 -3 0
 12 4 -56 -52 11 3 0
 12 4 56 52 -11 -3 0
 12 4 56 52 11 3 0
 -10 -2 55 51 9 1 0
 10 2 -55 -51 -9 -1 0
 10 2 -55 -51 9 1 0
 10 2 55 51 -9 -1 0
 10 2 55 51 9 1 0
 -10 -4 55 52 9 3 0
 10 4 -55 -52 -9 -3 0
 10 4 -55 -52 9 3 0
 10 4 55 52 -9 -3 0
 10 4 55 52 9 3 0
 -10 -6 55 53 9 5 0
 10 6 -55 -53 -9 -5 0
 10 6 -55 -53 9 5 0
 10 6 55 53 -9 -5 0
 10 6 55 53 9 5 0
 -10 -8 55 54 9 7 0
 10 8 -55 -54 -9 -7 0
 10 8 -55 -54 9 7 0
 10 8 55 54 -9 -7 0
 10 8 55 54 9 7 0
 -8 -2 54 51 7 1 0
 8 2 -54 -51 -7 -1 0
 8 2 -54 -51 7 1 0
 8 2 54 51 -7 -1 0
 8 2 54 51 7 1 0
 -8 -4 54 52 7 3 0
 8 4 -54 -52 -7 -3 0
 8 4 -54 -52 7 3 0
 8 4 54 52 -7 -3 0
 8 4 54 52 7 3 0
 -8 -6 54 53 7 5 0
 8 6 -54 -53 -7 -5 0
 8 6 -54 -53 7 5 0
 8 6 54 53 -7 -5 0
 8 6 54 53 7 5 0
 -6 -2 53 51 5 1 0
 6 2 -53 -51 -5 -1 0
 6 2 -53 -51 5 1 0
 6 2 53 51 -5 -1 0
 6 2 53 51 5 1 0
 -6 -4 53 52 5 3 0
 6 4 -53 -52 -5 -3 0
 6 4 -53 -52 5 3 0
 6 4 53 52 -5 -3 0
 6 4 53 52 5 3 0
 -4 -2 52 51 3 1 0
 4 2 -52 -51 -3 -1 0
 4 2 -52 -51 3 1 0
 4 2 52 51 -3 -1 0
 4 2 52 51 3 1 0
 -50 -75 0
 -48 -74 0
 -46 -73 0
 -44 -72 0
 -42 -71 0
 -40 -70 0
 -38 -69 0
 -36 -68 0
 -34 -67 0
 -32 -66 0
 -30 -65 0
 -28 -64 0
 -26 -63 0
 -24 -62 0
 -22 -61 0
 -20 -60 0
 -18 -59 0
 -16 -58 0
 -14 -57 0
 -12 -56 0
 -10 -55 0
 -8 -54 0
 -6 -53 0
 -4 -52 0
 -2 -51 0
 -50 -49 0
 -48 -47 0
 -46 -45 0
 -44 -43 0
 -42 -41 0
 -40 -39 0
 -38 -37 0
 -36 -35 0
 -34 -33 0
 -32 -31 0
 -30 -29 0
 -28 -27 0
 -26 -25 0
 -24 -23 0
 -22 -21 0
 -20 -19 0
 -18 -17 0
 -16 -15 0
 -14 -13 0
 -12 -11 0
 -10 -9 0
 -8 -7 0
 -6 -5 0
 -4 -3 0
 -2 -1 0
